(set-logic HORN)
(declare-fun state ((Array Int Int) Bool Int Int (Array Int Int) Bool Bool Int Int Int Int Int Int Int Int Int Int Int Int Int Int Int Int Int Int Int Int Int Int Int (Array Int Int)) Bool)
(assert (forall ((|.y.8| (Array Int Int)) (|A_3| Bool) (|B_2| Int) (|D_2| Int) (|E_2| (Array Int Int)) (|.loc.9| Bool) (|.loc.10| Bool) (|F2| Int) (|U| Int) (|O| Int) (|A1| Int) (|N1| Int) (|R1| Int) (|X1| Int) (|K2| Int) (|L2| Int) (|O2| Int) (|W2| Int) (|B3| Int) (|C3| Int) (|H3| Int) (|P| Int) (|V| Int) (|B1| Int) (|L1| Int) (|S1| Int) (|Y1| Int) (|I2| Int) (|P2| Int) (|Z2| Int) (|A_0| (Array Int Int)) (|.loc.16| Bool) (|.loc.17| Bool) (|.y.14| Int) (|.y.15| (Array Int Int)) (|.y.12| Bool) (|.y.13| Int) (|.y.11| (Array Int Int)) (|.xtv.1| Int) (|.xtv.2| Int) (|.xtv.3| Int) (|.xtv.4| Int) (|.xtv.5| Int) (|.xtv.6| Int) (|.xtv.7| Int) (|.xtv.8| Int) (|.xtv.9| Int) (|.xtv.10| Int) (|.xtv.11| Int) (|.xtv.12| Int) (|.xtv.13| Int) (|.xtv.14| Int) (|.xtv.15| Int) (|.xtv.16| Int) (|.xtv.17| Int) (|.xtv.18| Int) (|.xtv.19| Int) (|.xtv.20| Int) (|.xtv.21| Int) (|.xtv.22| Int) (|.xtv.23| Int) (|.xtv.24| (Array Int Int))) (=> (and (not .loc.10) (not .loc.9)) (state |.y.8| |A_3| |B_2| |D_2| |E_2| |.loc.9| |.loc.10| |F2| |U| |O| |A1| |N1| |R1| |X1| |K2| |L2| |O2| |W2| |B3| |C3| |H3| |P| |V| |B1| |L1| |S1| |Y1| |I2| |P2| |Z2| |A_0|))))
(assert (forall ((|.y.8| (Array Int Int)) (|A_3| Bool) (|B_2| Int) (|D_2| Int) (|E_2| (Array Int Int)) (|.loc.9| Bool) (|.loc.10| Bool) (|F2| Int) (|U| Int) (|O| Int) (|A1| Int) (|N1| Int) (|R1| Int) (|X1| Int) (|K2| Int) (|L2| Int) (|O2| Int) (|W2| Int) (|B3| Int) (|C3| Int) (|H3| Int) (|P| Int) (|V| Int) (|B1| Int) (|L1| Int) (|S1| Int) (|Y1| Int) (|I2| Int) (|P2| Int) (|Z2| Int) (|A_0| (Array Int Int)) (|.loc.16| Bool) (|.loc.17| Bool) (|.y.14| Int) (|.y.15| (Array Int Int)) (|.y.12| Bool) (|.y.13| Int) (|.y.11| (Array Int Int)) (|.xtv.1| Int) (|.xtv.2| Int) (|.xtv.3| Int) (|.xtv.4| Int) (|.xtv.5| Int) (|.xtv.6| Int) (|.xtv.7| Int) (|.xtv.8| Int) (|.xtv.9| Int) (|.xtv.10| Int) (|.xtv.11| Int) (|.xtv.12| Int) (|.xtv.13| Int) (|.xtv.14| Int) (|.xtv.15| Int) (|.xtv.16| Int) (|.xtv.17| Int) (|.xtv.18| Int) (|.xtv.19| Int) (|.xtv.20| Int) (|.xtv.21| Int) (|.xtv.22| Int) (|.xtv.23| Int) (|.xtv.24| (Array Int Int))) (=> (and (state |.y.8| |A_3| |B_2| |D_2| |E_2| |.loc.9| |.loc.10| |F2| |U| |O| |A1| |N1| |R1| |X1| |K2| |L2| |O2| |W2| |B3| |C3| |H3| |P| |V| |B1| |L1| |S1| |Y1| |I2| |P2| |Z2| |A_0|) (let ((.def_58 (not (= (+ B_2 (* (- 1) (select E_2 (+ (+ (* 4 B_2) D_2) 4)))) (- 1))))) (let ((.def_60 (<= D_2 0))) (let ((.def_63 (and (not .def_60) (not A_3)))) (let ((.def_68 (or .def_60 (not (<= (+ (* 4 B_2) D_2) (- 4)))))) (let ((.def_71 (not (<= 4 B_2)))) (let ((.def_97 (select .y.8 (+ F2 (- 4))))) (let ((.def_100 (ite (not (<= .def_97 (select .y.8 F2))) 1 0))) (let ((.def_112 (ite (not (<= (select .y.8 P) (select .y.8 O))) 2 .def_100))) (let ((.def_124 (ite (not (<= (select .y.8 V) (select .y.8 U))) 3 .def_112))) (let ((.def_146 (store (store .y.8 (+ F2 (- 4)) (select .y.8 L1)) L1 .def_97))) (let ((.def_148 (select .def_146 F2))) (let ((.def_151 (ite (not (<= .def_148 (select .def_146 N1))) 2 1))) (let ((.def_163 (ite (not (<= (select .def_146 S1) (select .def_146 R1))) 3 .def_151))) (let ((.def_185 (store (store .def_146 F2 (select .def_146 I2)) I2 .def_148))) (let ((.def_187 (select .def_185 L2))) (let ((.def_190 (ite (not (<= .def_187 (select .def_185 K2))) 3 2))) (let ((.def_210 (<= .y.14 0))) (let ((.def_229 (store (store .def_185 W2 (select .def_185 Z2)) Z2 .def_187))) (let ((.def_239 (<= F2 4))) (let ((.def_391 (not .loc.17))) (and (not .loc.10) (or (or (and (not .loc.16) (and (and .loc.9 (and (and (and .def_58 .def_63) .def_68) .def_71)) .loc.17)) (and (= (store (store (store (store (store A_0 (+ .y.14 16) 4) (+ .y.14 12) 3) (+ .y.14 8) 2) (+ .y.14 4) 1) .y.14 0) .y.15) (and (= (+ F2 (+ (* (- 1) P) (* 4 .def_100))) 4) (and (= (+ F2 (+ (* (- 1) V) (* 4 .def_112))) 4) (and (= (+ F2 (+ (* (- 1) B1) (* 4 .def_124))) 4) (and (= (+ F2 (+ (* (- 1) L1) (* 4 (ite (not (<= (select .y.8 B1) (select .y.8 A1))) 4 .def_124)))) 4) (and (= (+ F2 (+ (* (- 1) S1) (* 4 .def_151))) 4) (and (= (+ F2 (+ (* (- 1) Y1) (* 4 .def_163))) 4) (and (= (+ F2 (+ (* (- 1) I2) (* 4 (ite (not (<= (select .def_146 Y1) (select .def_146 X1))) 4 .def_163)))) 4) (and (= (+ F2 (+ (* (- 1) P2) (* 4 .def_190))) 4) (and (= (+ F2 (+ (* (- 1) Z2) (* 4 (ite (not (<= (select .def_185 P2) (select .def_185 O2))) 4 .def_190)))) 4) (and (not .def_210) (and (or .def_210 (not (<= .y.14 (- 16)))) (and (or .def_210 (not (<= .y.14 (- 12)))) (and (or .def_210 (not (<= .y.14 (- 4)))) (and (or .def_210 (not (<= .y.14 (- 8)))) (and (or (not (<= (+ F2 (* 4 (ite (not (<= (select .def_229 C3) (select .def_229 B3))) 4 3))) 4)) .def_239) (and (not .y.12) (and (= .y.13 0) (and (not .loc.9) (and (and .loc.16 (and (not .def_239) (and (or .def_239 (not (<= H3 0))) (and (or .def_239 (not (<= C3 0))) (and (or .def_239 (not (<= B3 0))) (and (or .def_239 (not (<= Z2 0))) (and (or .def_239 (not (<= W2 0))) (and (or .def_239 (not (<= P2 0))) (and (or .def_239 (not (<= O2 0))) (and (or .def_239 (not (<= L2 0))) (and (or .def_239 (not (<= K2 0))) (and (or .def_239 (not (<= I2 0))) (and (or .def_239 (not (<= Y1 0))) (and (or .def_239 (not (<= X1 0))) (and (or .def_239 (not (<= S1 0))) (and (or .def_239 (not (<= R1 0))) (and (or .def_239 (not (<= N1 0))) (and (or .def_239 (not (<= L1 0))) (and (or .def_239 (not (<= B1 0))) (and (or .def_239 (not (<= A1 0))) (and (or .def_239 (not (<= V 0))) (and (or .def_239 (not (<= U 0))) (and (or .def_239 (not (<= P 0))) (and (or .def_239 (not (<= O 0))) (and (or .def_239 (not (<= F2 0))) (and (= (+ F2 (* (- 1) H3)) (- 8)) (and (= (+ F2 (* (- 1) C3)) (- 8)) (and (= (+ F2 (* (- 1) B3)) (- 12)) (and (= (+ F2 (* (- 1) W2)) (- 4)) (and (= (+ F2 (* (- 1) O2)) (- 12)) (and (= (+ F2 (* (- 1) L2)) (- 4)) (and (= (+ F2 (* (- 1) K2)) (- 8)) (and (= (+ F2 (* (- 1) X1)) (- 12)) (and (= (+ F2 (* (- 1) R1)) (- 8)) (and (= (+ F2 (* (- 1) N1)) (- 4)) (and (= (+ F2 (* (- 1) A1)) (- 12)) (and (= (+ F2 (* (- 1) O)) (- 4)) (= (+ F2 (* (- 1) U)) (- 8))))))))))))))))))))))))))))))))))))))) .def_391))))))))))))))))))))) (and (= E_2 .y.15) (and (= D_2 .y.14) (and (= (+ B_2 (* (- 1) .y.13)) (- 1)) (and (= .def_58 .y.12) (and .def_391 (and .loc.16 (and .loc.9 (and .def_71 (and .def_63 .def_68)))))))))))))))))))))))))))))))) (state |.y.11| |.y.12| |.y.13| |.y.14| |.y.15| |.loc.16| |.loc.17| |.xtv.1| |.xtv.2| |.xtv.3| |.xtv.4| |.xtv.5| |.xtv.6| |.xtv.7| |.xtv.8| |.xtv.9| |.xtv.10| |.xtv.11| |.xtv.12| |.xtv.13| |.xtv.14| |.xtv.15| |.xtv.16| |.xtv.17| |.xtv.18| |.xtv.19| |.xtv.20| |.xtv.21| |.xtv.22| |.xtv.23| |.xtv.24|))))
(assert (forall ((|.y.8| (Array Int Int)) (|A_3| Bool) (|B_2| Int) (|D_2| Int) (|E_2| (Array Int Int)) (|.loc.9| Bool) (|.loc.10| Bool) (|F2| Int) (|U| Int) (|O| Int) (|A1| Int) (|N1| Int) (|R1| Int) (|X1| Int) (|K2| Int) (|L2| Int) (|O2| Int) (|W2| Int) (|B3| Int) (|C3| Int) (|H3| Int) (|P| Int) (|V| Int) (|B1| Int) (|L1| Int) (|S1| Int) (|Y1| Int) (|I2| Int) (|P2| Int) (|Z2| Int) (|A_0| (Array Int Int)) (|.loc.16| Bool) (|.loc.17| Bool) (|.y.14| Int) (|.y.15| (Array Int Int)) (|.y.12| Bool) (|.y.13| Int) (|.y.11| (Array Int Int)) (|.xtv.1| Int) (|.xtv.2| Int) (|.xtv.3| Int) (|.xtv.4| Int) (|.xtv.5| Int) (|.xtv.6| Int) (|.xtv.7| Int) (|.xtv.8| Int) (|.xtv.9| Int) (|.xtv.10| Int) (|.xtv.11| Int) (|.xtv.12| Int) (|.xtv.13| Int) (|.xtv.14| Int) (|.xtv.15| Int) (|.xtv.16| Int) (|.xtv.17| Int) (|.xtv.18| Int) (|.xtv.19| Int) (|.xtv.20| Int) (|.xtv.21| Int) (|.xtv.22| Int) (|.xtv.23| Int) (|.xtv.24| (Array Int Int))) (=> (state |.y.8| |A_3| |B_2| |D_2| |E_2| |.loc.9| |.loc.10| |F2| |U| |O| |A1| |N1| |R1| |X1| |K2| |L2| |O2| |W2| |B3| |C3| |H3| |P| |V| |B1| |L1| |S1| |Y1| |I2| |P2| |Z2| |A_0|) (not (and .loc.10 (not .loc.9))))))
(check-sat)
